(set-logic QF_UF)
(declare-fun A0 () Bool)
(declare-fun A1 () Bool)
(declare-fun A2 () Bool)
(declare-fun A3 () Bool)
(declare-fun A4 () Bool)
(declare-fun A5 () Bool)
(declare-fun A6 () Bool)
(declare-fun A7 () Bool)
(declare-fun A8 () Bool)
(declare-fun A9 () Bool)
(declare-fun A10 () Bool)
(declare-fun A11 () Bool)
(declare-fun A12 () Bool)
(declare-fun A13 () Bool)
(declare-fun A14 () Bool)
(declare-fun A15 () Bool)
(declare-fun A16 () Bool)
(declare-fun A17 () Bool)
(declare-fun A18 () Bool)
(declare-fun A19 () Bool)
(declare-fun A20 () Bool)
(declare-fun A21 () Bool)
(declare-fun A22 () Bool)
(declare-fun A23 () Bool)
(declare-fun A24 () Bool)
(assert (let ((.def_0 (not A15))) (let ((.def_1 (and .def_0 A13))) (let ((.def_2 (not A0))) (let ((.def_3 (not A2))) (let ((.def_4 (and .def_3 .def_2))) (let ((.def_5 (and .def_4 .def_1))) (let ((.def_6 (not .def_5))) (let ((.def_7 (not A20))) (let ((.def_8 (or .def_3 .def_7))) (let ((.def_9 (not .def_8))) (let ((.def_10 (not A5))) (let ((.def_11 (and .def_10 A2))) (let ((.def_12 (or .def_11 .def_9))) (let ((.def_13 (not .def_12))) (let ((.def_14 (or .def_13 .def_6))) (let ((.def_15 (not A12))) (let ((.def_16 (not A6))) (let ((.def_17 (or .def_16 .def_15))) (let ((.def_18 (not .def_17))) (let ((.def_19 (not A19))) (let ((.def_20 (and .def_19 A4))) (let ((.def_21 (not .def_20))) (let ((.def_22 (and .def_21 .def_18))) (let ((.def_23 (not A10))) (let ((.def_24 (or A11 .def_23))) (let ((.def_25 (not .def_24))) (let ((.def_26 (and A11 A10))) (let ((.def_27 (or .def_26 .def_25))) (let ((.def_28 (= .def_27 .def_22))) (let ((.def_29 (not .def_28))) (let ((.def_30 (or .def_29 .def_14))) (let ((.def_31 (not .def_30))) (let ((.def_32 (and A15 A12))) (let ((.def_33 (not A4))) (let ((.def_34 (not A14))) (let ((.def_35 (or .def_34 .def_33))) (let ((.def_36 (not .def_35))) (let ((.def_37 (and .def_36 .def_32))) (let ((.def_38 (and A3 A18))) (let ((.def_39 (not A7))) (let ((.def_40 (not A21))) (let ((.def_41 (= .def_40 .def_39))) (let ((.def_42 (or .def_41 .def_38))) (let ((.def_43 (and .def_42 .def_37))) (let ((.def_44 (not .def_43))) (let ((.def_45 (or A16 .def_10))) (let ((.def_46 (not .def_45))) (let ((.def_47 (= .def_16 A5))) (let ((.def_48 (not .def_47))) (let ((.def_49 (and .def_48 .def_46))) (let ((.def_50 (not A23))) (let ((.def_51 (and A16 .def_50))) (let ((.def_52 (not .def_51))) (let ((.def_53 (or A21 A17))) (let ((.def_54 (not .def_53))) (let ((.def_55 (and .def_54 .def_52))) (let ((.def_56 (not .def_55))) (let ((.def_57 (and .def_56 .def_49))) (let ((.def_58 (or .def_57 .def_44))) (let ((.def_59 (not .def_58))) (let ((.def_60 (or .def_59 .def_31))) (let ((.def_61 (not .def_60))) (let ((.def_62 (and A24 A5))) (let ((.def_63 (not .def_62))) (let ((.def_64 (and A13 A4))) (let ((.def_65 (and .def_64 .def_63))) (let ((.def_66 (not .def_65))) (let ((.def_67 (not A8))) (let ((.def_68 (or .def_2 .def_67))) (let ((.def_69 (not .def_68))) (let ((.def_70 (= .def_23 A4))) (let ((.def_71 (not .def_70))) (let ((.def_72 (and .def_71 .def_69))) (let ((.def_73 (not .def_72))) (let ((.def_74 (or .def_73 .def_66))) (let ((.def_75 (not .def_74))) (let ((.def_76 (or A14 A23))) (let ((.def_77 (not A18))) (let ((.def_78 (and .def_77 A15))) (let ((.def_79 (or .def_78 .def_76))) (let ((.def_80 (not .def_79))) (let ((.def_81 (or .def_10 A0))) (let ((.def_82 (not .def_81))) (let ((.def_83 (and A2 .def_19))) (let ((.def_84 (not .def_83))) (let ((.def_85 (and .def_84 .def_82))) (let ((.def_86 (or .def_85 .def_80))) (let ((.def_87 (not .def_86))) (let ((.def_88 (and .def_87 .def_75))) (let ((.def_89 (not .def_88))) (let ((.def_90 (or A5 A3))) (let ((.def_91 (not A16))) (let ((.def_92 (or .def_39 .def_91))) (let ((.def_93 (or .def_92 .def_90))) (let ((.def_94 (not .def_93))) (let ((.def_95 (and .def_15 .def_7))) (let ((.def_96 (not .def_95))) (let ((.def_97 (and A5 A17))) (let ((.def_98 (not .def_97))) (let ((.def_99 (and .def_98 .def_96))) (let ((.def_100 (not .def_99))) (let ((.def_101 (or .def_100 .def_94))) (let ((.def_102 (or A15 .def_23))) (let ((.def_103 (and A14 A21))) (let ((.def_104 (or .def_103 .def_102))) (let ((.def_105 (not .def_104))) (let ((.def_106 (or .def_15 .def_40))) (let ((.def_107 (or A21 A19))) (let ((.def_108 (= .def_107 .def_106))) (let ((.def_109 (and .def_108 .def_105))) (let ((.def_110 (or .def_109 .def_101))) (let ((.def_111 (not .def_110))) (let ((.def_112 (and .def_111 .def_89))) (let ((.def_113 (not .def_112))) (let ((.def_114 (= .def_113 .def_61))) (let ((.def_115 (not .def_114))) (let ((.def_116 (= A21 A12))) (let ((.def_117 (or A18 .def_16))) (let ((.def_118 (and .def_117 .def_116))) (let ((.def_119 (and A16 A9))) (let ((.def_120 (not .def_119))) (let ((.def_121 (or A23 A14))) (let ((.def_122 (not .def_121))) (let ((.def_123 (= .def_122 .def_120))) (let ((.def_124 (not .def_123))) (let ((.def_125 (and .def_124 .def_118))) (let ((.def_126 (not A17))) (let ((.def_127 (and .def_126 .def_50))) (let ((.def_128 (and A22 .def_33))) (let ((.def_129 (or .def_128 .def_127))) (let ((.def_130 (not .def_129))) (let ((.def_131 (and A18 A18))) (let ((.def_132 (not A1))) (let ((.def_133 (and A6 .def_132))) (let ((.def_134 (not .def_133))) (let ((.def_135 (and .def_134 .def_131))) (let ((.def_136 (not .def_135))) (let ((.def_137 (and .def_136 .def_130))) (let ((.def_138 (not .def_137))) (let ((.def_139 (and .def_138 .def_125))) (let ((.def_140 (= A12 A12))) (let ((.def_141 (not .def_140))) (let ((.def_142 (not A13))) (let ((.def_143 (and .def_142 A10))) (let ((.def_144 (not .def_143))) (let ((.def_145 (and .def_144 .def_141))) (let ((.def_146 (not .def_145))) (let ((.def_147 (and A24 .def_23))) (let ((.def_148 (not A9))) (let ((.def_149 (and A4 .def_148))) (let ((.def_150 (and .def_149 .def_147))) (let ((.def_151 (not .def_150))) (let ((.def_152 (or .def_151 .def_146))) (let ((.def_153 (or A21 .def_132))) (let ((.def_154 (and A15 A1))) (let ((.def_155 (not .def_154))) (let ((.def_156 (or .def_155 .def_153))) (let ((.def_157 (and A21 .def_0))) (let ((.def_158 (not .def_157))) (let ((.def_159 (= A22 A9))) (let ((.def_160 (not .def_159))) (let ((.def_161 (and .def_160 .def_158))) (let ((.def_162 (not .def_161))) (let ((.def_163 (and .def_162 .def_156))) (let ((.def_164 (and .def_163 .def_152))) (let ((.def_165 (not .def_164))) (let ((.def_166 (and .def_165 .def_139))) (let ((.def_167 (= A1 A16))) (let ((.def_168 (not .def_167))) (let ((.def_169 (or A16 .def_40))) (let ((.def_170 (not .def_169))) (let ((.def_171 (and .def_170 .def_168))) (let ((.def_172 (not .def_171))) (let ((.def_173 (and .def_67 A16))) (let ((.def_174 (and A4 A1))) (let ((.def_175 (= .def_174 .def_173))) (let ((.def_176 (not .def_175))) (let ((.def_177 (or .def_176 .def_172))) (let ((.def_178 (and A4 .def_10))) (let ((.def_179 (or A8 .def_142))) (let ((.def_180 (and .def_179 .def_178))) (let ((.def_181 (not .def_180))) (let ((.def_182 (not A3))) (let ((.def_183 (or .def_148 .def_182))) (let ((.def_184 (not .def_183))) (let ((.def_185 (or .def_77 A21))) (let ((.def_186 (and .def_185 .def_184))) (let ((.def_187 (not .def_186))) (let ((.def_188 (and .def_187 .def_181))) (let ((.def_189 (or .def_188 .def_177))) (let ((.def_190 (or .def_0 .def_2))) (let ((.def_191 (or A17 .def_142))) (let ((.def_192 (not .def_191))) (let ((.def_193 (or .def_192 .def_190))) (let ((.def_194 (not .def_193))) (let ((.def_195 (and .def_15 .def_39))) (let ((.def_196 (not .def_195))) (let ((.def_197 (not A11))) (let ((.def_198 (or .def_197 A20))) (let ((.def_199 (not .def_198))) (let ((.def_200 (or .def_199 .def_196))) (let ((.def_201 (not .def_200))) (let ((.def_202 (or .def_201 .def_194))) (let ((.def_203 (not .def_202))) (let ((.def_204 (and .def_34 .def_182))) (let ((.def_205 (and A5 A24))) (let ((.def_206 (and .def_205 .def_204))) (let ((.def_207 (not .def_206))) (let ((.def_208 (and .def_10 .def_182))) (let ((.def_209 (= .def_67 A18))) (let ((.def_210 (not .def_209))) (let ((.def_211 (and .def_210 .def_208))) (let ((.def_212 (and .def_211 .def_207))) (let ((.def_213 (or .def_212 .def_203))) (let ((.def_214 (or .def_213 .def_189))) (let ((.def_215 (not .def_214))) (let ((.def_216 (or .def_215 .def_166))) (let ((.def_217 (not .def_216))) (let ((.def_218 (and .def_217 .def_115))) (let ((.def_219 (or A1 A23))) (let ((.def_220 (not .def_219))) (let ((.def_221 (= .def_7 A16))) (let ((.def_222 (not .def_221))) (let ((.def_223 (or .def_222 .def_220))) (let ((.def_224 (not .def_223))) (let ((.def_225 (and .def_132 .def_91))) (let ((.def_226 (not .def_225))) (let ((.def_227 (not A24))) (let ((.def_228 (= .def_227 .def_39))) (let ((.def_229 (not .def_228))) (let ((.def_230 (and .def_229 .def_226))) (let ((.def_231 (or .def_230 .def_224))) (let ((.def_232 (= A7 A21))) (let ((.def_233 (not .def_232))) (let ((.def_234 (or A3 .def_67))) (let ((.def_235 (not .def_234))) (let ((.def_236 (or .def_235 .def_233))) (let ((.def_237 (or A23 A11))) (let ((.def_238 (and A4 A4))) (let ((.def_239 (and .def_238 .def_237))) (let ((.def_240 (not .def_239))) (let ((.def_241 (or .def_240 .def_236))) (let ((.def_242 (not .def_241))) (let ((.def_243 (or .def_242 .def_231))) (let ((.def_244 (not .def_243))) (let ((.def_245 (and A0 .def_132))) (let ((.def_246 (not .def_245))) (let ((.def_247 (and .def_182 A16))) (let ((.def_248 (or .def_247 .def_246))) (let ((.def_249 (or A20 .def_132))) (let ((.def_250 (not .def_249))) (let ((.def_251 (or .def_91 A18))) (let ((.def_252 (not .def_251))) (let ((.def_253 (or .def_252 .def_250))) (let ((.def_254 (not .def_253))) (let ((.def_255 (or .def_254 .def_248))) (let ((.def_256 (and A18 A12))) (let ((.def_257 (or A21 .def_19))) (let ((.def_258 (not .def_257))) (let ((.def_259 (or .def_258 .def_256))) (let ((.def_260 (not .def_259))) (let ((.def_261 (or A19 A22))) (let ((.def_262 (or A8 A3))) (let ((.def_263 (not .def_262))) (let ((.def_264 (or .def_263 .def_261))) (let ((.def_265 (and .def_264 .def_260))) (let ((.def_266 (or .def_265 .def_255))) (let ((.def_267 (and .def_266 .def_244))) (let ((.def_268 (not .def_267))) (let ((.def_269 (and .def_10 A10))) (let ((.def_270 (not .def_269))) (let ((.def_271 (and .def_40 .def_7))) (let ((.def_272 (or .def_271 .def_270))) (let ((.def_273 (not .def_272))) (let ((.def_274 (and A16 .def_142))) (let ((.def_275 (or .def_182 A4))) (let ((.def_276 (not .def_275))) (let ((.def_277 (and .def_276 .def_274))) (let ((.def_278 (and .def_277 .def_273))) (let ((.def_279 (or .def_227 A10))) (let ((.def_280 (or .def_10 .def_227))) (let ((.def_281 (or .def_280 .def_279))) (let ((.def_282 (and A7 A14))) (let ((.def_283 (not .def_282))) (let ((.def_284 (and A13 A20))) (let ((.def_285 (not .def_284))) (let ((.def_286 (and .def_285 .def_283))) (let ((.def_287 (not .def_286))) (let ((.def_288 (= .def_287 .def_281))) (let ((.def_289 (and .def_288 .def_278))) (let ((.def_290 (or A8 A6))) (let ((.def_291 (not .def_290))) (let ((.def_292 (or .def_227 .def_34))) (let ((.def_293 (or .def_292 .def_291))) (let ((.def_294 (not .def_293))) (let ((.def_295 (and .def_10 .def_15))) (let ((.def_296 (not .def_295))) (let ((.def_297 (or .def_10 A3))) (let ((.def_298 (or .def_297 .def_296))) (let ((.def_299 (not .def_298))) (let ((.def_300 (and .def_299 .def_294))) (let ((.def_301 (or A15 A20))) (let ((.def_302 (or A0 .def_148))) (let ((.def_303 (not .def_302))) (let ((.def_304 (or .def_303 .def_301))) (let ((.def_305 (or .def_16 .def_2))) (let ((.def_306 (not .def_305))) (let ((.def_307 (or .def_148 .def_77))) (let ((.def_308 (not .def_307))) (let ((.def_309 (and .def_308 .def_306))) (let ((.def_310 (not .def_309))) (let ((.def_311 (and .def_310 .def_304))) (let ((.def_312 (not .def_311))) (let ((.def_313 (or .def_312 .def_300))) (let ((.def_314 (not .def_313))) (let ((.def_315 (or .def_314 .def_289))) (let ((.def_316 (and .def_315 .def_268))) (let ((.def_317 (not .def_316))) (let ((.def_318 (and A5 .def_10))) (let ((.def_319 (not .def_318))) (let ((.def_320 (or A14 A21))) (let ((.def_321 (not .def_320))) (let ((.def_322 (and .def_321 .def_319))) (let ((.def_323 (not .def_322))) (let ((.def_324 (or A7 .def_19))) (let ((.def_325 (and A9 .def_33))) (let ((.def_326 (not .def_325))) (let ((.def_327 (and .def_326 .def_324))) (let ((.def_328 (= .def_327 .def_323))) (let ((.def_329 (not .def_328))) (let ((.def_330 (or .def_40 .def_126))) (let ((.def_331 (not .def_330))) (let ((.def_332 (and A19 .def_182))) (let ((.def_333 (or .def_332 .def_331))) (let ((.def_334 (or A8 .def_77))) (let ((.def_335 (not .def_334))) (let ((.def_336 (and .def_67 A21))) (let ((.def_337 (and .def_336 .def_335))) (let ((.def_338 (not .def_337))) (let ((.def_339 (or .def_338 .def_333))) (let ((.def_340 (not .def_339))) (let ((.def_341 (or .def_340 .def_329))) (let ((.def_342 (not .def_341))) (let ((.def_343 (= A20 .def_34))) (let ((.def_344 (and .def_132 A11))) (let ((.def_345 (not .def_344))) (let ((.def_346 (and .def_345 .def_343))) (let ((.def_347 (not .def_346))) (let ((.def_348 (and .def_148 .def_2))) (let ((.def_349 (and .def_23 .def_77))) (let ((.def_350 (and .def_349 .def_348))) (let ((.def_351 (or .def_350 .def_347))) (let ((.def_352 (and .def_50 A20))) (let ((.def_353 (not .def_352))) (let ((.def_354 (and .def_148 .def_33))) (let ((.def_355 (not .def_354))) (let ((.def_356 (and .def_355 .def_353))) (let ((.def_357 (and A21 A2))) (let ((.def_358 (not .def_357))) (let ((.def_359 (and A22 A9))) (let ((.def_360 (and .def_359 .def_358))) (let ((.def_361 (not .def_360))) (let ((.def_362 (= .def_361 .def_356))) (let ((.def_363 (or .def_362 .def_351))) (let ((.def_364 (not .def_363))) (let ((.def_365 (or .def_364 .def_342))) (let ((.def_366 (or .def_33 A1))) (let ((.def_367 (or A20 A15))) (let ((.def_368 (not .def_367))) (let ((.def_369 (= .def_368 .def_366))) (let ((.def_370 (or A18 A6))) (let ((.def_371 (and A17 A4))) (let ((.def_372 (and .def_371 .def_370))) (let ((.def_373 (= .def_372 .def_369))) (let ((.def_374 (not .def_373))) (let ((.def_375 (or A14 A13))) (let ((.def_376 (not .def_375))) (let ((.def_377 (and .def_376 .def_282))) (let ((.def_378 (not .def_377))) (let ((.def_379 (or A1 .def_50))) (let ((.def_380 (not .def_379))) (let ((.def_381 (or .def_33 A23))) (let ((.def_382 (not .def_381))) (let ((.def_383 (= .def_382 .def_380))) (let ((.def_384 (not .def_383))) (let ((.def_385 (or .def_384 .def_378))) (let ((.def_386 (or .def_385 .def_374))) (let ((.def_387 (and A14 .def_40))) (let ((.def_388 (not .def_387))) (let ((.def_389 (or A19 .def_15))) (let ((.def_390 (not .def_389))) (let ((.def_391 (or .def_390 .def_388))) (let ((.def_392 (not .def_391))) (let ((.def_393 (and A0 A3))) (let ((.def_394 (not .def_393))) (let ((.def_395 (and .def_34 A1))) (let ((.def_396 (or .def_395 .def_394))) (let ((.def_397 (and .def_396 .def_392))) (let ((.def_398 (not .def_397))) (let ((.def_399 (and A19 .def_10))) (let ((.def_400 (= .def_10 .def_142))) (let ((.def_401 (not .def_400))) (let ((.def_402 (or .def_401 .def_399))) (let ((.def_403 (not .def_402))) (let ((.def_404 (or .def_10 A13))) (let ((.def_405 (and A3 .def_23))) (let ((.def_406 (or .def_405 .def_404))) (let ((.def_407 (and .def_406 .def_403))) (let ((.def_408 (not .def_407))) (let ((.def_409 (= .def_408 .def_398))) (let ((.def_410 (not .def_409))) (let ((.def_411 (or .def_410 .def_386))) (let ((.def_412 (not .def_411))) (let ((.def_413 (or .def_412 .def_365))) (let ((.def_414 (and .def_413 .def_317))) (let ((.def_415 (or .def_414 .def_218))) .def_415)))))))))))))))))))))))))))))))))))))))))))))))))))))))))))))))))))))))))))))))))))))))))))))))))))))))))))))))))))))))))))))))))))))))))))))))))))))))))))))))))))))))))))))))))))))))))))))))))))))))))))))))))))))))))))))))))))))))))))))))))))))))))))))))))))))))))))))))))))))))))))))))))))))))))))))))))))))))))))))))))))))))))))))))))))))))))))))))))))))))))))))))))))))))))))))))))))))))))))))))))))))))))))))))))
(check-sat)
